20 
300 
-0.5 0 0 0
0.5 0 0 -106
-7 -7 35 -13
-7 -5 35 -25
-7 -3 -35 -111
-7 -1 35 -15
-7 1 35 -15
-7 3 -35 -62
-7 5 35 -16
-7 7 -35 -110
-5 -7 -35 -104
-5 -5 25 -16
-5 -3 -25 -94
-5 -1 -25 -137
-5 1 25 -27
-5 3 -25 -62
-5 5 25 -11
-5 7 35 -25
-3 -7 35 -25
-3 -5 -25 -67
-3 -3 -15 -76
-3 -1 15 -15
-3 1 15 -12
-3 3 -15 -80
-3 5 -25 -89
-3 7 -35 -61
-1 -7 -35 -118
-1 -5 -25 -137
-1 -3 15 -25
-1 -1 5 -18
-1 1 5 -22
-1 3 -15 -88
-1 5 25 -21
-1 7 -35 -113
1 -7 -35 -108
1 -5 -25 -76
1 -3 15 -14
1 -1 5 -25
1 1 -5 -92
1 3 -15 -131
1 5 -25 -120
1 7 -35 -69
3 -7 -35 -60
3 -5 -25 -138
3 -3 -15 -66
3 -1 15 -11
3 1 -15 -86
3 3 15 -25
3 5 25 -17
3 7 35 -17
5 -7 -35 -130
5 -5 25 -26
5 -3 25 -13
5 -1 -25 -96
5 1 -25 -137
5 3 -25 -107
5 5 25 -17
5 7 35 -14
7 -7 -35 -115
7 -5 35 -29
7 -3 -35 -109
7 -1 -35 -127
7 1 35 -25
7 3 -35 -66
7 5 35 -24
7 7 35 -22
